Solving original (integer) problem with strategy gdp.binary_multiplication...
--- Job model.gms Start 02/18/26 23:36:36 52.2.0 d8e408be LEX-LEG x86 64bit/Linux
--- Applying:
    /package/gams/52.2/gmsprmun.txt
--- GAMS Parameters defined
    Input /local/scratch/a/sgusev/repos/k_means/data/gams_gurobi_gdp.binary_multiplication/no_mode/2026-02-18_23-36-35/original/model.gms
    Output /local/scratch/a/sgusev/repos/k_means/data/gams_gurobi_gdp.binary_multiplication/no_mode/2026-02-18_23-36-35/original/output.lst
    ScrDir /local/scratch/a/sgusev/repos/k_means/data/gams_gurobi_gdp.binary_multiplication/no_mode/2026-02-18_23-36-35/original/225a/
    SysDir /package/gams/52.2/
    CurDir /local/scratch/a/sgusev/repos/k_means/data/gams_gurobi_gdp.binary_multiplication/no_mode/2026-02-18_23-36-35/original/
    LogOption 3
    AppendLog 1
Licensee: David Bernal / SECQUOIA Research Group         G251008+0003Ac-GEN
          Purdue University, Davidson School of Chemical EngineeringDCE4838
          225a/gamslice.dat
          5a82958a-fbca-4a23
          node:66820903 mem:995 cores:48 ipport:47485 v:2                  
          Evaluation license: Not for commercial or production use
          The time-limited license stops working on : Jun 30, 2027
System information: 48 physical cores and 995 Gb physical memory detected
GAMS 52.2.0   Copyright (C) 1987-2025 GAMS Development. All rights reserved
--- Starting compilation
--- model.gms(214) 2 Mb
--- $echo File /local/scratch/a/sgusev/repos/k_means/data/gams_gurobi_gdp.binary_multiplication/no_mode/2026-02-18_23-36-35/original/gurobi.opt
--- model.gms(384) 2 Mb
--- Starting execution: elapsed 0:00:00.006
--- model.gms(223) 3 Mb
--- Generating MINLP model GAMS_MODEL
--- model.gms(227) 5 Mb
---   47 rows  57 columns  247 non-zeroes
---   627 nl-code  198 nl-non-zeroes
---   33 discrete-columns
--- Range statistics (absolute non-zero finite values)
--- RHS       [min, max] : [ 1.000E+00, 1.000E+00] - Zero values observed as well
--- Bound     [min, max] : [ 1.000E+00, 8.800E+01] - Zero values observed as well
--- Matrix    [min, max] : [ 2.974E-01, 1.874E+00] - Zero values observed as well
--- model.gms(227) 3 Mb
--- Executing GUROBI (Solvelink=5): elapsed 0:00:00.008
Reading parameter(s) from "/local/scratch/a/sgusev/repos/k_means/data/gams_gurobi_gdp.binary_multiplication/no_mode/2026-02-18_23-36-35/original/gurobi.opt"
>>  NonConvex 2
>>  Threads 1
>>  MIPGap 1e-06
>>  MIPGapAbs 1e-10
>>  FeasibilityTol 1e-06
>>  OptimalityTol 1e-06
>>  IntFeasTol 1e-05
Finished reading from "/local/scratch/a/sgusev/repos/k_means/data/gams_gurobi_gdp.binary_multiplication/no_mode/2026-02-18_23-36-35/original/gurobi.opt"

... GRB_LICENSE_FILE = /local/scratch/a/sgusev/gurobi.lic

    Gurobi           52.2.0 d8e408be Dec 8, 2025           LEG x86 64bit/Linux    

... GAMS/Gurobi Link license.
... GMO Q Extraction (ThreePass): 0.00s

    Gurobi Optimizer version 13.0.0 build v13.0.0rc1 (linux64 - "Oracle Linux Server 9.7")
    
    CPU model: AMD EPYC 7643 48-Core Processor, instruction set [SSE2|AVX|AVX2]
    Thread count: 48 physical cores, 96 logical processors, using up to 1 threads
    
    Non-default parameters:
    TimeLimit  300
    MIPGap  1e-06
    LogToConsole  0
    NonConvex  2
    Threads  1
    
    Optimize a model with 46 rows, 89 columns and 70 nonzeros (Min)
    Model fingerprint: 0x12033a5e
    Model has 11 linear objective coefficients
    Model has 33 general nonlinear constraints (165 nonlinear terms)
    Variable types: 56 continuous, 33 integer (0 binary)
    Coefficient statistics:
      Matrix range     [1e+00, 1e+00]
      Objective range  [1e+00, 1e+00]
      Bounds range     [1e+00, 9e+01]
      RHS range        [1e+00, 1e+00]
      NLCon coe range  [4e-02, 1e+00]
    Presolve model has 33 nlconstr
    Added 297 variables to disaggregate expressions
    Presolve removed 33 rows and 0 columns
    Presolve time: 0.00s
    Presolved: 706 rows, 420 columns, 1621 nonzeros
    Presolved model has 132 bilinear constraint(s)
    
    Solving non-convex MIQCP to global optimality
    
    Variable types: 387 continuous, 33 integer (33 binary)
    Found heuristic solution: objective 10.3529541
    
    Root relaxation: objective 0.000000e+00, 63 iterations, 0.00 seconds (0.00 work units)
    
        Nodes    |    Current Node    |     Objective Bounds      |     Work
     Expl Unexpl |  Obj  Depth IntInf | Incumbent    BestBd   Gap | It/Node Time
    
         0     0    0.00000    0  110   10.35295    0.00000   100%     -    0s
         0     0    0.00000    0  128   10.35295    0.00000   100%     -    0s
         0     0    0.00000    0  152   10.35295    0.00000   100%     -    0s
         0     0    0.00000    0  144   10.35295    0.00000   100%     -    0s
         0     0    0.00000    0  144   10.35295    0.00000   100%     -    0s
         0     0    0.00000    0  148   10.35295    0.00000   100%     -    0s
         0     0    0.00000    0  146   10.35295    0.00000   100%     -    0s
         0     0    0.00000    0  146   10.35295    0.00000   100%     -    0s
         0     0    0.00000    0  144   10.35295    0.00000   100%     -    0s
    H    0     0                       8.1840710    0.00000   100%     -    0s
    H    0     0                       7.9989449    0.00000   100%     -    0s
         0     2    0.00000    0  144    7.99894    0.00000   100%     -    0s
    H    3     3                       7.8254161    0.00000   100%   8.3    0s
    H    3     3                       6.9355199    0.00000   100%   8.3    0s
    H    3     3                       6.6949784    0.00000   100%   8.3    0s
    H    4     4                       6.6949784    0.00000   100%  10.8    0s
    H    5     5                       6.0459133    0.00000   100%  11.2    0s
    H    9     9                       6.0459133    0.00000   100%  10.4    0s
    H   90    81                       6.0459133    0.00000   100%   8.4    0s
    H  328   212                       5.9363144    0.00000   100%  12.5    0s
    H  347   223                       5.9363144    0.00000   100%  12.2    0s
    H  361   237                       5.9273484    0.00000   100%  12.0    0s
    H  528   386                       5.9134090    0.00000   100%  10.2    0s
    H  611   392                       5.7002963    0.00000   100%  10.7    0s
    H  618   259                       4.8395331    0.00000   100%  10.6    0s
    H  622   261                       4.8395331    0.00000   100%  10.6    0s
    H  876   339                       4.5070062    0.00000   100%  14.6    1s
    H  879   324                       4.5070062    0.00000   100%  14.6    1s
    H 1410   401                       4.4852726    0.00000   100%  13.8    1s
    H 1410   401                       4.4852155    0.00000   100%  13.8    1s
    H 1410   401                       4.4852120    0.00000   100%  13.8    1s
    H 1410   401                       4.4851705    0.00000   100%  13.8    1s
    H 1410   401                       4.4851701    0.00000   100%  13.8    1s
    H 1496   453                       4.4850243    0.00000   100%  13.7    2s
    H 1565   469                       4.4385854    0.16577  96.3%  14.1    2s
    H 1951   530                       4.1424841    0.16709  96.0%  13.0    2s
    H 2238   560                       3.9599827    0.41608  89.5%  13.0    2s
    H 3997   817                       3.9599827    1.42097  64.1%  15.9    3s
      5061   868    3.64721   25  135    3.95998    1.80247  54.5%  16.9    5s
    H 8525   747                       3.9549385    3.03284  23.3%  17.4    8s
    H 8556   754                       3.9549385    3.03284  23.3%  17.4    8s
     10902  1574     cutoff   46         3.95494    3.23533  18.2%  15.6   10s
     18438  3746    3.77650   52   87    3.95494    3.43062  13.3%  12.1   15s
     26229  5992    3.94100   45   77    3.95494    3.50802  11.3%  10.5   20s
     33603  7648    3.81058   49   88    3.95494    3.56141  10.0%   9.9   25s
     41386  9375    3.93566   64   99    3.95494    3.60303  8.90%   9.4   30s
     48774 10801     cutoff   58         3.95494    3.63245  8.15%   9.0   35s
     56643 11910     cutoff   51         3.95494    3.65781  7.51%   8.8   40s
     64216 13251    3.77031   50   76    3.95494    3.67734  7.02%   8.6   45s
     72093 14312     cutoff   50         3.95494    3.69619  6.54%   8.4   50s
     79642 15283    3.87389   54   87    3.95494    3.71139  6.16%   8.3   55s
     86705 16480     cutoff   56         3.95494    3.72351  5.85%   8.3   60s
     93718 17193     cutoff   44         3.95494    3.73526  5.55%   8.4   65s
     100223 17860     cutoff   51         3.95494    3.74412  5.33%   8.4   70s
     108086 18889    3.94322   60   77    3.95494    3.75392  5.08%   8.4   75s
     115610 19643    3.93242   55   76    3.95494    3.76218  4.87%   8.3   80s
     123440 20377     cutoff   59         3.95494    3.77016  4.67%   8.2   85s
     130983 21052    3.95317   64   55    3.95494    3.77701  4.50%   8.2   90s
     138694 21707    3.94797   62   86    3.95494    3.78361  4.33%   8.1   95s
     146132 22091    3.89030   53  110    3.95494    3.78963  4.18%   8.1  100s
     153810 22409    3.94624   67   66    3.95494    3.79561  4.03%   8.0  105s
     161097 22494     cutoff   58         3.95494    3.80120  3.89%   8.0  110s
     168831 23070    3.95263   78   55    3.95494    3.80643  3.76%   8.0  115s
     175971 23362    3.84441   54   77    3.95494    3.81135  3.63%   8.0  120s
     183668 23663    3.91109   53   77    3.95494    3.81627  3.51%   7.9  125s
     191070 24363     cutoff   58         3.95494    3.82043  3.40%   7.9  130s
     198740 24485     cutoff   69         3.95494    3.82534  3.28%   7.9  135s
     206526 24659    3.92823   62   66    3.95494    3.83015  3.16%   7.9  140s
     214078 24707    3.85291   56   77    3.95494    3.83472  3.04%   7.9  145s
     221897 24970    3.94188   53   66    3.95494    3.83947  2.92%   7.8  150s
     228800 24939    3.93502   69   88    3.95494    3.84335  2.82%   7.9  155s
     235798 25207     cutoff   52         3.95494    3.84699  2.73%   7.9  160s
     242608 25347    3.86329   59   84    3.95494    3.85034  2.64%   7.9  165s
     249264 25521     cutoff   59         3.95494    3.85351  2.56%   8.0  170s
     255968 25545    3.93057   60   88    3.95494    3.85682  2.48%   8.0  175s
     263154 25577    3.90375   58   77    3.95494    3.86045  2.39%   8.0  180s
     270002 25621    3.91044   58   87    3.95494    3.86349  2.31%   8.0  185s
     277212 25989    3.94903   70   98    3.95494    3.86647  2.24%   8.1  190s
     284640 26251    3.93794   61   77    3.95494    3.86969  2.16%   8.0  195s
     292599 26396    3.90092   62   98    3.95494    3.87326  2.07%   8.0  200s
     300630 26315    3.88434   64   88    3.95494    3.87651  1.98%   8.0  205s
     308203 26094     cutoff   54         3.95494    3.88006  1.89%   8.0  210s
     316196 26021    3.94876   68   77    3.95494    3.88313  1.82%   7.9  215s
     323477 26146    3.91445   63   66    3.95494    3.88614  1.74%   7.9  220s
     331532 26251     cutoff   64         3.95494    3.88966  1.65%   7.9  225s
     339217 26252    3.90084   62   88    3.95494    3.89299  1.57%   7.9  230s
     347191 26566     cutoff   63         3.95494    3.89663  1.47%   7.8  235s
     354989 27052     cutoff   60         3.95494    3.89987  1.39%   7.8  240s
    *356127 27220             136       3.9549290    3.90021  1.38%   7.8  240s
     362689 29822    3.94586   85   88    3.95493    3.90128  1.36%   7.8  245s
     371042 32475    3.95080   80   55    3.95493    3.90298  1.31%   7.8  250s
     379553 34458    3.92024   68   98    3.95493    3.90465  1.27%   7.7  255s
     387610 36105    3.93954   65   77    3.95493    3.90652  1.22%   7.7  260s
     395852 38515     cutoff   77         3.95493    3.90773  1.19%   7.7  265s
     403758 41189    3.95463  117   44    3.95493    3.90866  1.17%   7.7  270s
     411765 43918     cutoff   78         3.95493    3.90931  1.15%   7.6  275s
     420051 45738    3.95119   75   55    3.95493    3.91037  1.13%   7.6  280s
     427964 47667    3.94870   77   66    3.95493    3.91144  1.10%   7.6  285s
    *430359 48460             136       3.9549239    3.91167  1.09%   7.6  286s
     435727 50068     cutoff  121         3.95492    3.91209  1.08%   7.6  290s
     444092 52275    3.92545   63   99    3.95492    3.91281  1.06%   7.6  295s
    
    Cutting planes:
      Gomory: 3
      Implied bound: 4
      MIR: 11
      Flow cover: 47
      RLT: 2
    
    Explored 452427 nodes (3416236 simplex iterations) in 300.00 seconds (202.71 work units)
    Thread count was 1 (of 96 available processors)
    
    Solution count 10: 3.95492 3.95493 3.95494 ... 4.48521
    
    Time limit reached
    Warning: max constraint violation (2.8633e-06) exceeds tolerance
    Warning: max general constraint violation (2.8633e-06) exceeds tolerance
    Best objective 3.954923850263e+00, best bound 3.913413364922e+00, gap 1.0496%
    
    User-callback calls 452464, time in user-callback 0.02 sec

--- Reading solution for model GAMS_MODEL
***
*** Solver did not provide marginals for model GAMS_MODEL
***
--- Executing after solve: elapsed 0:05:00.074
--- model.gms(230) 3 Mb
--- model.gms(384) 5 Mb
--- Putfile results /local/scratch/a/sgusev/repos/k_means/data/gams_gurobi_gdp.binary_multiplication/no_mode/2026-02-18_23-36-35/original/results.dat
--- Putfile statresults /local/scratch/a/sgusev/repos/k_means/data/gams_gurobi_gdp.binary_multiplication/no_mode/2026-02-18_23-36-35/original/resultsstat.dat
*** Status: Normal completion
--- Job model.gms Stop 02/18/26 23:41:36 elapsed 0:05:00.074
Original problem solved. Time taken: 300.5649411678314 seconds
Original objective value: 3.954923850262735
